NAME: Taillard-150A
BEST_KNOWN: 3055.23
COMMENT: 3055.230000
DIMENSION: 151
CAPACITY: 1544
EDGE_WEIGHT_FORMAT: FUNCTION
EDGE_WEIGHT_TYPE: EXACT_2D
NODE_COORD_SECTION
1 0.00000 0.00000
2 -4.00000 106.00000
3 -11.00000 106.00000
4 -12.00000 115.00000
5 4.00000 123.00000
6 7.00000 113.00000
7 -13.00000 125.00000
8 -11.00000 105.00000
9 8.00000 107.00000
10 6.00000 111.00000
11 0.00000 125.00000
12 8.00000 118.00000
13 4.00000 114.00000
14 0.00000 113.00000
15 -5.00000 109.00000
16 -11.00000 112.00000
17 6.00000 106.00000
18 -11.00000 123.00000
19 -6.00000 126.00000
20 26.00000 -33.00000
21 34.00000 -38.00000
22 26.00000 -44.00000
23 28.00000 -36.00000
24 30.00000 -39.00000
25 44.00000 -31.00000
26 43.00000 -27.00000
27 45.00000 -22.00000
28 37.00000 -44.00000
29 32.00000 -23.00000
30 35.00000 -41.00000
31 48.00000 -27.00000
32 41.00000 -35.00000
33 45.00000 -41.00000
34 43.00000 -36.00000
35 34.00000 -38.00000
36 43.00000 -23.00000
37 32.00000 -41.00000
38 33.00000 -24.00000
39 48.00000 -26.00000
40 102.00000 85.00000
41 90.00000 69.00000
42 95.00000 88.00000
43 79.00000 74.00000
44 77.00000 89.00000
45 99.00000 81.00000
46 99.00000 80.00000
47 81.00000 84.00000
48 77.00000 69.00000
49 86.00000 85.00000
50 82.00000 89.00000
51 86.00000 86.00000
52 84.00000 87.00000
53 23.00000 14.00000
54 13.00000 4.00000
55 13.00000 7.00000
56 16.00000 2.00000
57 17.00000 -1.00000
58 16.00000 3.00000
59 13.00000 10.00000
60 23.00000 11.00000
61 15.00000 5.00000
62 17.00000 -1.00000
63 11.00000 0.00000
64 19.00000 1.00000
65 14.00000 3.00000
66 18.00000 -3.00000
67 118.00000 8.00000
68 99.00000 21.00000
69 106.00000 -5.00000
70 124.00000 8.00000
71 104.00000 3.00000
72 126.00000 4.00000
73 115.00000 7.00000
74 110.00000 -3.00000
75 98.00000 -6.00000
76 111.00000 13.00000
77 -67.00000 90.00000
78 -56.00000 96.00000
79 -56.00000 97.00000
80 -57.00000 100.00000
81 -54.00000 101.00000
82 -50.00000 96.00000
83 -64.00000 103.00000
84 -63.00000 103.00000
85 -57.00000 100.00000
86 -53.00000 106.00000
87 -57.00000 96.00000
88 -67.00000 97.00000
89 -61.00000 98.00000
90 -66.00000 95.00000
91 -51.00000 104.00000
92 -62.00000 95.00000
93 -67.00000 106.00000
94 -51.00000 102.00000
95 -86.00000 87.00000
96 -82.00000 78.00000
97 -92.00000 86.00000
98 -86.00000 78.00000
99 6.00000 67.00000
100 13.00000 59.00000
101 21.00000 66.00000
102 8.00000 59.00000
103 20.00000 70.00000
104 1.00000 62.00000
105 19.00000 57.00000
106 15.00000 70.00000
107 20.00000 55.00000
108 8.00000 51.00000
109 3.00000 54.00000
110 18.00000 68.00000
111 12.00000 53.00000
112 3.00000 65.00000
113 4.00000 62.00000
114 19.00000 52.00000
115 92.00000 -28.00000
116 92.00000 -26.00000
117 80.00000 -28.00000
118 91.00000 -18.00000
119 93.00000 -24.00000
120 76.00000 -15.00000
121 88.00000 -33.00000
122 83.00000 -28.00000
123 86.00000 -23.00000
124 92.00000 -20.00000
125 82.00000 -29.00000
126 88.00000 -29.00000
127 82.00000 -27.00000
128 88.00000 -13.00000
129 83.00000 -29.00000
130 90.00000 -17.00000
131 49.00000 -4.00000
132 58.00000 -6.00000
133 64.00000 -7.00000
134 54.00000 -15.00000
135 66.00000 -3.00000
136 65.00000 -13.00000
137 57.00000 -20.00000
138 38.00000 -2.00000
139 -44.00000 88.00000
140 -36.00000 100.00000
141 -37.00000 98.00000
142 -39.00000 110.00000
143 -34.00000 111.00000
144 -47.00000 111.00000
145 -28.00000 105.00000
146 -38.00000 98.00000
147 -32.00000 91.00000
148 -25.00000 97.00000
149 -46.00000 111.00000
150 -36.00000 107.00000
151 -35.00000 92.00000
DEMAND_SECTION
1 0
2 13
3 122
4 30
5 3
6 5
7 422
8 13
9 22
10 173
11 41
12 8
13 8
14 110
15 198
16 384
17 193
18 238
19 265
20 3
21 469
22 7
23 6
24 108
25 10
26 40
27 635
28 49
29 149
30 403
31 42
32 70
33 201
34 66
35 526
36 6
37 279
38 160
39 3
40 4
41 105
42 46
43 474
44 7
45 7
46 99
47 126
48 119
49 46
50 273
51 91
52 294
53 4
54 81
55 285
56 90
57 462
58 65
59 6
60 4
61 529
62 165
63 4
64 394
65 3
66 60
67 899
68 169
69 10
70 47
71 37
72 23
73 25
74 444
75 3
76 99
77 58
78 7
79 11
80 15
81 381
82 7
83 39
84 502
85 115
86 85
87 3
88 136
89 111
90 66
91 50
92 252
93 4
94 119
95 746
96 6
97 51
98 322
99 1023
100 5
101 10
102 153
103 29
104 13
105 3
106 4
107 70
108 9
109 147
110 3
111 10
112 4
113 439
114 14
115 729
116 29
117 3
118 98
119 113
120 122
121 11
122 90
123 789
124 6
125 179
126 3
127 3
128 21
129 869
130 246
131 10
132 36
133 14
134 134
135 175
136 32
137 20
138 212
139 45
140 173
141 240
142 16
143 27
144 61
145 203
146 5
147 369
148 81
149 128
150 406
151 32
DEPOT_SECTION
1
-1
EOF
